54960 100 1100 11 28 24 37 47 18 27 35 31 45 38 20 36 28 42 42 6 22 42 22 5 41 33 38 27 35 32 33 28 12 13 15 33 29 40 15 32 48 18 33 25 19 10 28 17 19 28 17 20 11 48 6 10 27 26 10 12 30 17 7 27 47 24 6 24 23 35 24 20 8 8 27 27 47 19 9 28 35 26 26 18 46 22 8 20 20 25 14 26 42 33 37 8 8 9 18 43 36 13 27 57 56 56 66 69 56 59 56 53 68 64 53 60 57 63 65 57 55 68 55 56 60 56 55 64 65 65 56 66 52 52 53 62 60 67 52 68 67 53 59 60 52 51 60 55 51 54 61 58 54 69 53 52 64 59 63 50 64 57 58 58 67 56 52 63 54 63 55 66 51 54 58 54 68 54 53 57 64 57 67 59 67 55 60 56 59 58 57 61 67 64 60 59 52 53 52 61 65 56 64
